% File represents an instance of a Composite Structure problem to be solved by a CP framework
% Created on 2025-03-26 10:41:30.855
T = 52;
n = 25;
m = 40;
edges = [(2, 1),
(7, 6),
(12, 11),
(16, 17),
(21, 22),
(2, 3),
(7, 8),
(12, 13),
(18, 17),
(23, 22),
(4, 3),
(9, 8),
(14, 13),
(19, 18),
(24, 23),
(4, 5),
(9, 10),
(14, 15),
(19, 20),
(24, 25),
(6, 1),
(11, 6),
(16, 11),
(16, 21),
(7, 2),
(12, 7),
(12, 17),
(17, 22),
(8, 3),
(13, 8),
(18, 13),
(18, 23),
(9, 4),
(14, 9),
(19, 14),
(19, 24),
(10, 5),
(15, 10),
(15, 20),
(20, 25)];
counts = [|12, 8, 12, 10,
|12, 8, 12, 12,
|12, 6, 12, 10,
|12, 8, 12, 10,
|10, 6, 10, 10,
|12, 8, 12, 12,
|12, 10, 12, 12,
|12, 8, 12, 10,
|14, 8, 14, 12,
|12, 6, 12, 12,
|12, 10, 12, 14,
|12, 10, 12, 16,
|12, 8, 12, 12,
|14, 8, 14, 14,
|14, 8, 14, 12,
|12, 12, 12, 14,
|12, 10, 12, 10,
|12, 10, 12, 12,
|14, 10, 14, 14,
|14, 6, 14, 12,
|12, 10, 12, 10,
|12, 10, 12, 4,
|12, 10, 12, 6,
|14, 10, 14, 8,
|14, 6, 14, 6|];
